20
5
20644
231 189 395 236 393
true
0.25
11 32 36 39 2 2 4 28 38 2 19 41 18 16 50 32 40 10 9 26
4 13 17 27 2 14 18 12 1 22 24 47 48 37 7 50 4 27 30 2
17 14 25 38 39 48 12 49 13 1 3 30 40 48 16 7 31 10 29 15
47 48 45 13 21 28 25 31 20 49 23 45 32 31 19 21 9 37 12 50
43 31 10 32 11 26 12 32 38 14 4 48 3 7 34 22 6 25 6 19
90 98 -3 -78 58 56 59 -82 33 -19 55 -94 61 -4 -3 -46 -52 27 2 35
0 -96 0 -97 0 83 -43 0 0 0 0 0 0 0 0 0 0 0 0 0
0 0 0 0 0 0 0 0 0 0 0 0 -65 0 -49 0 0 -24 0
0 0 -22 0 0 0 0 58 -78 0 0 0 0 0 0 0 0 56
0 0 -96 0 -43 0 0 0 0 0 0 34 19 0 0 0 0
0 0 -50 0 0 0 0 0 0 0 0 0 -3 26 60 0
0 -49 0 0 0 55 0 0 0 0 0 0 0 53 0
0 0 0 -72 0 0 0 -66 64 0 0 0 0 30
0 -76 0 -70 0 0 0 0 0 0 0 -28 0
0 0 0 0 0 0 0 -14 0 -63 0 -7
0 0 0 0 0 0 22 17 0 34 -96
0 0 0 0 0 0 0 0 0 0
0 44 -74 0 0 -9 -81 0 0
0 0 0 0 -29 27 23 0
0 0 0 11 0 0 0
0 0 0 0 0 0
0 -43 0 0 0
0 0 0 0
0 0 0
0 -8
0 0 47 0 0 -40 0 0 0 -69 0 0 92 0 0 0 0 0 83
0 36 0 0 0 0 44 0 0 0 0 23 0 0 0 -63 0 0
0 0 0 -71 49 0 0 0 0 -29 0 0 -62 81 -100 0 0
0 14 0 0 0 0 0 0 40 0 -40 0 0 0 -53 0
0 0 96 0 99 0 0 0 0 0 -55 0 0 0 -54
0 0 0 0 0 0 0 0 0 0 0 0 0 0
0 0 -36 34 0 0 0 81 0 -76 0 0 29
0 0 0 55 0 0 0 18 0 0 0 0
0 0 0 -87 -48 0 0 82 -31 0 0
0 0 0 58 0 0 0 0 62 0
0 0 0 0 -88 -29 0 0 0
0 0 0 35 0 -34 59 0
0 0 0 -10 0 0 0
0 0 0 0 -57 -45
0 0 0 0 0
0 0 0 0
0 0 0
0 0
0
0 -26 0 30 -75 0 0 0 0 0 0 0 0 0 0 0 0 0
0 0 0 0 0 0 0 0 0 0 53 0 -35 0 0 0 0
0 -85 58 -63 0 0 0 0 -72 0 0 0 -38 0 0 0
0 0 0 0 0 0 0 0 0 0 0 0 0 0 0
0 55 0 0 0 -25 18 0 0 -6 0 0 0 0
0 -28 32 0 0 78 0 -50 -12 0 29 0 0
0 0 0 -95 77 0 0 0 -53 0 0 -17
0 0 0 -22 0 0 69 0 0 0 0
0 -43 0 0 0 0 0 -35 0 -88
0 0 0 0 -91 0 -35 0 0
0 0 99 0 73 0 0 0
0 -43 0 89 0 0 0
0 0 0 56 0 0
0 0 0 0 0
0 0 100 -11
0 0 0
0 0
0
0 0 0 0 0 0 0 0 0 12 0 0 88 -34 0 0 -9
0 0 0 0 0 0 -84 0 0 0 0 -87 0 0 0 -26
0 0 0 17 0 0 0 0 -76 0 0 0 0 0 0
0 0 0 0 -75 0 0 0 0 0 0 0 0 0
0 0 0 0 0 0 0 0 0 0 0 0 0
0 -96 0 0 0 0 0 0 0 20 -62 0
0 0 100 0 0 23 0 0 0 0 0
0 0 0 70 0 0 0 0 0 40
0 41 0 0 0 0 -66 -80 0
0 0 0 0 68 0 0 0
0 0 0 88 0 -99 0
0 0 0 0 21 0
0 0 0 0 0
0 0 0 0
0 0 0
0 52
0
0 0 0 0 0 0 0 0 0 0 0 0 0 0 78 -53
0 21 0 0 -84 0 0 0 -73 0 0 0 0 0 0
0 0 37 0 0 0 0 0 0 90 0 0 -80 22
0 10 0 -72 0 -29 0 -47 0 0 0 84 0
0 -5 0 0 0 51 0 0 0 -11 -90 0
0 0 0 -6 0 -10 0 69 0 0 0
0 0 0 -14 0 38 -38 -24 0 0
0 -65 0 0 0 0 0 0 0
0 0 -38 31 0 0 0 0
0 0 0 0 0 0 0
0 -29 0 0 0 0
0 0 0 0 0
0 0 0 -47
0 0 0
0 0
0
0 0 0 0 0 0 -79 0 0 85 10 81 48 0 0
0 0 0 0 0 38 0 0 25 68 0 0 0 -32
0 0 0 0 0 0 7 -56 0 0 0 0 0
0 -35 0 0 0 0 0 0 0 0 0 0
0 0 0 0 48 0 0 0 0 0 0
0 0 0 -98 93 0 0 -42 0 0
0 -2 2 -11 0 -73 0 100 89
0 0 0 0 0 0 0 0
0 0 0 0 0 61 0
0 0 48 0 39 0
0 0 0 -36 0
0 -77 73 -20
0 5 -5
0 0
0
0 0 0 54 0 77 -13 0 35 0 0 0 0 0
0 -84 0 0 0 36 0 0 0 0 0 0 0
0 0 54 35 0 0 -58 0 0 0 0 -61
0 0 0 0 0 0 0 0 0 0 -21
0 0 0 0 0 0 0 90 0 42
0 0 0 0 0 0 0 0 0
0 0 55 0 0 72 58 0
0 2 -61 0 0 0 20
0 0 11 4 0 0
0 0 0 0 -55
0 0 0 0
0 0 0
0 0
0
0 0 0 0 0 0 -80 0 100 0 0 0 77
0 0 0 0 0 0 0 0 27 0 0 0
0 26 0 20 0 0 0 0 0 0 0
0 0 -79 0 0 0 0 0 0 0
0 0 0 0 0 0 0 5 0
0 0 0 0 0 0 0 0
0 0 36 0 75 0 0
0 0 0 0 0 0
0 -9 0 0 73
0 -15 0 0
0 0 1
0 0
0
0 0 0 40 0 0 0 0 0 0 0 0
0 0 84 0 80 0 0 0 28 0 0
0 0 0 0 4 -21 0 4 0 0
0 0 93 0 0 0 0 0 0
0 0 0 0 0 -60 0 52
0 81 26 -58 0 0 0
0 92 0 0 0 0
0 0 0 0 -3
0 -11 0 0
0 0 -28
0 0
0
0 -40 0 0 0 46 82 0 -26 7 0
0 0 0 0 0 0 0 90 86 0
0 0 -84 0 58 0 0 0 30
0 0 -19 0 0 0 0 -66
0 0 -89 0 72 0 -55
0 0 75 0 0 0
0 0 0 0 0
0 0 0 0
0 0 61
0 0
0
0 0 0 0 67 -66 0 0 0 0
0 0 0 0 0 0 0 0 0
0 0 87 0 -71 0 -8 0
0 0 0 0 0 0 0
0 0 0 0 0 0
0 0 0 0 0
0 91 0 0
0 0 0
0 0
0
0 0 0 0 0 0 0 0 0
0 -57 -63 -63 0 0 -49 0
0 40 0 0 -76 0 0
0 96 -1 17 0 0
0 0 0 0 0
0 0 0 0
0 0 0
0 52
0
0 0 0 0 0 0 7 0
0 0 0 0 0 0 -79
0 0 0 0 0 0
0 0 9 0 0
0 0 0 -68
0 0 -73
0 0
0
0 0 0 -19 0 0 0
0 0 0 0 0 0
0 -60 0 0 0
0 -91 -74 -5
0 0 0
0 0
0
0 0 -99 0 0 0
0 0 52 65 0
0 0 0 0
0 0 0
0 0
0
0 0 0 0 0
0 0 0 0
0 0 0
0 0
0
0 0 0 32
0 71 0
0 0
0
0 0 -58
0 98
0
0 -89
0
0
-23 -155 -174 -545 12 389 311 268 -109 446 -172 -437 -37 -132 711 200 -67 -219 518 -205
-2.043619138087514 -7.2134844322344325 -8.659058823529412 -21.491195269155796 2.794005994005994 51.84885531135531 31.860222222222223 10.878862190037305 -25.71429149797571 146.04638218923932 -24.806178489702518 -10.667670674047166 -3.4481944444444443 -7.536554988167891 43.71234918177798 11.487229437229438 -7.83948028673835 -13.318006006006007 44.436858237547895 -27.788151147098517
